* #variable= 20 #constraint= 3 
+1 x1 -1 x11 +2 x2 -2 x12 +4 x3 -4 x13 +8 x4 -8 x14 +16 x5 -16 x15 +32 x6 -32 x16 +64 x7 -64 x17 +128 x8 -128 x18 +256 x9 -256 x19 +512 x10 -512 x20 = 0 ;
-1 x1 -1 x11 >= -1; 
+1 x1 +1 x11 >= 1; 
